(set-logic QF_S)
(declare-fun var0 () String)
(assert (RegexIn var0 (RegexConcat (RegexUnion (RegexUnion (Str2Reg "0") (Str2Reg "111")) (RegexUnion (Str2Reg "222") (Str2Reg "33"))) (RegexConcat (RegexUnion (RegexUnion (Str2Reg "4") (Str2Reg "555")) (RegexUnion (Str2Reg "6") (Str2Reg "7"))) (RegexConcat (RegexStar (RegexStar (Str2Reg "888"))) (RegexConcat (RegexStar (RegexPlus (Str2Reg "9"))) (RegexConcat (RegexStar (RegexStar (Str2Reg "aaa"))) (RegexConcat (RegexUnion (RegexUnion (Str2Reg "b") (Str2Reg "c")) (RegexUnion (Str2Reg "dd") (Str2Reg "eee"))) (RegexConcat (RegexPlus (RegexPlus (Str2Reg "fff"))) (RegexConcat (RegexUnion (RegexPlus (Str2Reg "ggg")) (RegexPlus (Str2Reg "hh"))) (RegexConcat (RegexPlus (RegexUnion (Str2Reg "ii") (Str2Reg "jj"))) (RegexUnion (RegexStar (Str2Reg "k")) (RegexStar (Str2Reg "ll"))))))))))))))
(assert (<= 76 (Length var0)))
(check-sat)